Route #1: 8 43 44 28 30 41 36 38 37 39 34 35 4 3 14 12 17 
Route #2: 5 6 7 27 29 33 32 31 40 42 
Route #3: 1 11 18 10 26 23 22 25 19 20 
Route #4: 9 16 13 21 24 2 15 
cost 902.494
execution_time 12.795
